c Random generated cnf formula, satisfiable: false
p cnf 10 50
2 -4 3 0
2 -10 -6 0
-8 -10 6 0
4 7 5 0
-1 3 -5 0
-8 4 3 0
-10 6 8 0
-6 10 -1 0
-1 3 5 0
7 3 6 0
-7 -1 -5 0
-7 -3 -4 0
3 1 2 0
10 1 -3 0
8 3 5 0
-7 10 6 0
8 6 -1 0
-3 1 5 0
6 -1 4 0
-10 2 4 0
-3 -5 6 0
-10 5 6 0
-1 -5 7 0
-3 -8 6 0
8 -10 -4 0
-8 -1 10 0
5 1 -4 0
5 -4 -3 0
-8 6 7 0
-9 -3 -1 0
-10 1 2 0
1 7 5 0
-8 -4 -2 0
6 8 1 0
10 -2 -6 0
10 1 -5 0
-5 -6 10 0
-6 -8 9 0
1 10 8 0
6 5 -9 0
7 -6 -2 0
8 -9 -2 0
10 5 -6 0
-4 -1 9 0
-9 2 -1 0
-2 -6 -3 0
-1 -7 8 0
3 4 -6 0
7 8 -4 0
1 7 -5 0
